Traveling Salesman Problem/TSP_generados/Aleatorio1620390863_6.tsp
NAME: Aleatorio1620390863_6.tsp
COMMENT: Randomly generated scenario
TYPE: TSP
DIMENSION: 6
EDGE_WEIGHT_TYPE: ATT
NODE_COORD_SECTION
1 15.93 0.94
2 36.0 36.92
3 31.93 31.95
4 19.2 18.25
5 25.88 26.59
6 42.35 1.93
