Traveling Salesman Problem/TSP_generados/Aleatorio1620390863_6.opt.tour
NAME: Aleatorio1620390863_6.opt.tour
COMMENT: Optimal solution for Aleatorio1620390863_6 (104.80831617574523)
TYPE: TOUR
DIMENSION: 6
TOUR_SECTION
1 6 2 3 5 4
-1
EOF
